(declare-const delta_tmp___0 Int)
(declare-const delta_y Int)
(declare-const delta_x Int)
(assert (exists
         ((|tmp___0'?1| Int) (|y'?2| Int) (|x'?3| Int) (phi_y?4 Int)
            (phi_x?5 Int) (havoc?6 Int) (tmp___0?7 Int) (y?8 Int) (x?9 Int))
         (and (<= (- x?9) 0) (or (< havoc?6 0) (< 0 havoc?6))
                (or (and (= (mod x?9 2) 0) (= (+ (- phi_x?5) x?9 2) 0)
                           (= (+ (- phi_y?4) y?8 -2) 0))
                      (and (or (< (mod x?9 2) 0) (< 0 (mod x?9 2)))
                             (= (+ (- phi_x?5) x?9 -1) 0)
                             (= (+ (- phi_y?4) y?8 -1) 0)))
                (= (+ |tmp___0'?1| (- havoc?6)) 0)
                (= (+ |y'?2| (- phi_y?4)) 0) (= (+ |x'?3| (- phi_x?5)) 0)
                (= delta_x (+ |x'?3| (- x?9))) (= delta_y (+ |y'?2| (- y?8)))
                (= delta_tmp___0 (+ |tmp___0'?1| (- tmp___0?7))))))
(check-sat)
